\ENCODING=ISO-8859-1
\Problem name: IloCplex

Minimize
 obj: 99999999 slack_0_0 + 99999999 slack_0_1 + 99999999 slack_0_2
      + 99999999 slack_0_3 + 99999999 slack_0_4 + 99999999 slack_0_5
      + 99999999 slack_1_0 + 99999999 slack_1_1 + 99999999 slack_1_2
      + 99999999 slack_1_3 + 99999999 slack_1_4 + 99999999 slack_1_5
      + 99999999 slack_2_0 + 99999999 slack_2_1 + 99999999 slack_2_2
      + 99999999 slack_2_3 + 99999999 slack_2_4 + 99999999 slack_2_5 + 100 x193
      + 100 x195 + 100 x197 + 100 x199 + 100 x201 + 100 x203 + 100 x205
      + 100 x207 + 100 x209 + 100 x211 + 100 x213 + 100 x215 + 100 x217
      + 100 x219 + 100 x221 + 100 x223 + 100 x225 + 100 x227 + 100 x229
      + 100 x231 + 100 x233 + 100 x235 + 100 x237 + 100 x239 + 100 x241
      + 100 x243 + 100 x245 + 100 x247 + 100 x249 + 100 x251 + 100 x253
      + 100 x254 + 100 x256 + 100 x258 + 100 x260 + 100 x262 + 200 y_0_0
      + 200 y_0_1 + 200 y_0_2 + 200 y_0_3 + 200 y_0_4 + 200 y_0_5 + 200 y_1_0
      + 200 y_1_1 + 200 y_1_2 + 200 y_1_3 + 200 y_1_4 + 200 y_1_5 + x276
Subject To
 c1:   - x_0_0_0 - x_0_1_0 + x3  = 0
 c2:   - x_0_0_1 - x_0_1_1 + x7  = 0
 c3:   - x_0_0_2 - x_0_1_2 + x11  = 0
 c4:   - x_0_0_3 - x_0_1_3 + x15  = 0
 c5:   - x_0_0_4 - x_0_1_4 + x19  = 0
 c6:   - x_0_0_5 - x_0_1_5 + x23  = 0
 c7:   - x_1_0_0 - x_1_1_0 + x27  = 0
 c8:   - x_1_0_1 - x_1_1_1 + x31  = 0
 c9:   - x_1_0_2 - x_1_1_2 + x35  = 0
 c10:  - x_1_0_3 - x_1_1_3 + x39  = 0
 c11:  - x_1_0_4 - x_1_1_4 + x43  = 0
 c12:  - x_1_0_5 - x_1_1_5 + x47  = 0
 c13:  - x_2_0_0 - x_2_1_0 + x51  = 0
 c14:  - x_2_0_1 - x_2_1_1 + x55  = 0
 c15:  - x_2_0_2 - x_2_1_2 + x59  = 0
 c16:  - x_2_0_3 - x_2_1_3 + x63  = 0
 c17:  - x_2_0_4 - x_2_1_4 + x67  = 0
 c18:  - x_2_0_5 - x_2_1_5 + x71  = 0
 c19:  - 5 x27 - 5 x51 + r_0_0  = 0
 c20:  - 10 x3 + r_1_0  = 0
 c21:  - 10 x27 + r_2_0  = 0
 c22:  r_3_0  = 0
 c23:  r_4_0  = 0
 c24:  r_5_0  = 0
 c25:  - 10 x27 - 5 x51 + r_6_0  = 0
 c26:  - 5 x31 - 5 x55 + r_0_1  = 0
 c27:  - 10 x7 + r_1_1  = 0
 c28:  - 10 x31 + r_2_1  = 0
 c29:  r_3_1  = 0
 c30:  r_4_1  = 0
 c31:  r_5_1  = 0
 c32:  - 10 x31 - 5 x55 + r_6_1  = 0
 c33:  - 5 x35 - 5 x59 + r_0_2  = 0
 c34:  - 10 x11 + r_1_2  = 0
 c35:  - 10 x35 + r_2_2  = 0
 c36:  r_3_2  = 0
 c37:  r_4_2  = 0
 c38:  r_5_2  = 0
 c39:  - 10 x35 - 5 x59 + r_6_2  = 0
 c40:  - 5 x39 - 5 x63 + r_0_3  = 0
 c41:  - 10 x15 + r_1_3  = 0
 c42:  - 10 x39 + r_2_3  = 0
 c43:  r_3_3  = 0
 c44:  r_4_3  = 0
 c45:  r_5_3  = 0
 c46:  - 10 x39 - 5 x63 + r_6_3  = 0
 c47:  - 5 x43 - 5 x67 + r_0_4  = 0
 c48:  - 10 x19 + r_1_4  = 0
 c49:  - 10 x43 + r_2_4  = 0
 c50:  r_3_4  = 0
 c51:  r_4_4  = 0
 c52:  r_5_4  = 0
 c53:  - 10 x43 - 5 x67 + r_6_4  = 0
 c54:  - 5 x47 - 5 x71 + r_0_5  = 0
 c55:  - 10 x23 + r_1_5  = 0
 c56:  - 10 x47 + r_2_5  = 0
 c57:  r_3_5  = 0
 c58:  r_4_5  = 0
 c59:  r_5_5  = 0
 c60:  - 10 x47 - 5 x71 + r_6_5  = 0
 c61:  r_0_0 + mr_0_0  = 2000
 c62:  r_0_1 - mr_0_0 + mr_0_1  = 0
 c63:  r_0_2 - mr_0_1 + mr_0_2  = 0
 c64:  r_0_3 - mr_0_2 + mr_0_3  = 2000
 c65:  r_0_4 - mr_0_3 + mr_0_4  = 0
 c66:  r_0_5 - mr_0_4 + mr_0_5  = 0
 c67:  r_1_0 + mr_1_0  = 10
 c68:  r_1_1 - mr_1_0 + mr_1_1  = 20
 c69:  r_1_2 - mr_1_1 + mr_1_2  = 20
 c70:  r_1_3 - mr_1_2 + mr_1_3  = 30
 c71:  r_1_4 - mr_1_3 + mr_1_4  = 40
 c72:  r_1_5 - mr_1_4 + mr_1_5  = 30
 c73:  r_2_0 + mr_2_0  = 0
 c74:  r_2_1 - mr_2_0 + mr_2_1  = 0
 c75:  r_2_2 - mr_2_1 + mr_2_2  = 0
 c76:  r_2_3 - mr_2_2 + mr_2_3  = 0
 c77:  r_2_4 - mr_2_3 + mr_2_4  = 0
 c78:  r_2_5 - mr_2_4 + mr_2_5  = 0
 c79:  r_3_0 + mr_3_0  = 500
 c80:  r_3_1 - mr_3_0 + mr_3_1  = 550
 c81:  r_3_2 - mr_3_1 + mr_3_2  = 550
 c82:  r_3_3 - mr_3_2 + mr_3_3  = 220
 c83:  r_3_4 - mr_3_3 + mr_3_4  = 220
 c84:  r_3_5 - mr_3_4 + mr_3_5  = 220
 c85:  r_4_0 + mr_4_0  = 100
 c86:  r_4_1 - mr_4_0 + mr_4_1  = 0
 c87:  r_4_2 - mr_4_1 + mr_4_2  = 200
 c88:  r_4_3 - mr_4_2 + mr_4_3  = 2000
 c89:  r_4_4 - mr_4_3 + mr_4_4  = 0
 c90:  r_4_5 - mr_4_4 + mr_4_5  = 0
 c91:  r_5_0 + mr_5_0  = 500
 c92:  r_5_1 - mr_5_0 + mr_5_1  = 0
 c93:  r_5_2 - mr_5_1 + mr_5_2  = 0
 c94:  r_5_3 - mr_5_2 + mr_5_3  = 0
 c95:  r_5_4 - mr_5_3 + mr_5_4  = 0
 c96:  r_5_5 - mr_5_4 + mr_5_5  = 0
 c97:  r_6_0 - m_0_0 + mr_6_0  = 100
 c98:  r_6_1 - m_0_0 - mr_6_0 + mr_6_1  = 0
 c99:  r_6_2 - mr_6_1 - m_0_1 + mr_6_2  = 0
 c100: r_6_3 - mr_6_2 - m_0_2 + mr_6_3  = 0
 c101: r_6_4 - mr_6_3 - m_0_3 + mr_6_4  = 0
 c102: r_6_5 - mr_6_4 - m_0_4 + mr_6_5  = 0
 c103: - x_0_0_0 - x_0_1_0 + r_6_0 + m_0_0 - slack_0_0  = -900
 c104: - x_0_0_1 - x_0_1_1 + r_6_1 - m_0_0 + m_0_1 - slack_0_1  = -1500
 c105: - x_0_0_2 - x_0_1_2 + r_6_2 - m_0_1 + m_0_2 - slack_0_2  = 0
 c106: - x_0_0_3 - x_0_1_3 + r_6_3 - m_0_2 + m_0_3 - slack_0_3  = 0
 c107: - x_0_0_4 - x_0_1_4 + r_6_4 - m_0_3 + m_0_4 - slack_0_4  = -500
 c108: - x_0_0_5 - x_0_1_5 + r_6_5 - m_0_4 - slack_0_5 + m_0_5  = -1000
 c109: - x_1_0_0 - x_1_1_0 - slack_1_0 + m_1_0  = 0
 c110: - x_1_0_1 - x_1_1_1 - m_1_0 - slack_1_1 + m_1_1  = -20
 c111: - x_1_0_2 - x_1_1_2 - m_1_1 - slack_1_2 + m_1_2  = -4000
 c112: - x_1_0_3 - x_1_1_3 - m_1_2 - slack_1_3 + m_1_3  = -300
 c113: - x_1_0_4 - x_1_1_4 - m_1_3 - slack_1_4 + m_1_4  = -20
 c114: - x_1_0_5 - x_1_1_5 - m_1_4 - slack_1_5 + m_1_5  = -30
 c115: - x_2_0_0 - x_2_1_0 - slack_2_0 + m_2_0  = 1000
 c116: - x_2_0_1 - x_2_1_1 - m_2_0 - slack_2_1 + m_2_1  = 0
 c117: - x_2_0_2 - x_2_1_2 - m_2_1 - slack_2_2 + m_2_2  = 0
 c118: - x_2_0_3 - x_2_1_3 - m_2_2 - slack_2_3 + m_2_3  = 0
 c119: - x_2_0_4 - x_2_1_4 - m_2_3 - slack_2_4 + m_2_4  = 0
 c120: - x_2_0_5 - x_2_1_5 - m_2_4 - slack_2_5 + m_2_5  = -1000
 c121: m_0_0 >= 0
 c122: m_0_1 >= 0
 c123: m_0_2 >= 0
 c124: m_0_3 >= 0
 c125: m_0_4 >= 0
 c126: m_0_5 >= 0
 c127: m_1_0 >= 0
 c128: m_1_1 >= 0
 c129: m_1_2 >= 0
 c130: m_1_3 >= 0
 c131: m_1_4 >= 0
 c132: m_1_5 >= 0
 c133: m_2_0 >= 0
 c134: m_2_1 >= 0
 c135: m_2_2 >= 0
 c136: m_2_3 >= 0
 c137: m_2_4 >= 0
 c138: m_2_5 >= 0
 c139: 0.0111111111111111 x_0_0_0 + 0.00638888888888889 x_1_0_0
       + 0.00138888888888889 x_2_0_0 + 2 x193 + 2 x195 + 2 x197 <= 22
 c140: 0.0111111111111111 x_0_0_1 + 0.00638888888888889 x_1_0_1
       + 0.00138888888888889 x_2_0_1 + 2 x199 + 2 x201 + 2 x203 <= 22
 c141: 0.0111111111111111 x_0_0_2 + 0.00638888888888889 x_1_0_2
       + 0.00138888888888889 x_2_0_2 + 2 x205 + 2 x207 + 2 x209 <= 22
 c142: 0.0111111111111111 x_0_0_3 + 0.00638888888888889 x_1_0_3
       + 0.00138888888888889 x_2_0_3 + 2 x211 + 2 x213 + 2 x215 <= 22
 c143: 0.0111111111111111 x_0_0_4 + 0.00638888888888889 x_1_0_4
       + 0.00138888888888889 x_2_0_4 + 2 x217 + 2 x219 + 2 x221 <= 22
 c144: 0.0111111111111111 x_0_0_5 + 0.00638888888888889 x_1_0_5
       + 0.00138888888888889 x_2_0_5 + 2 x223 + 2 x225 + 2 x227 <= 22
 c145: 0.0111111111111111 x_0_1_0 + 0.00638888888888889 x_1_1_0
       + 0.00138888888888889 x_2_1_0 + 2 x229 + 2 x231 + 2 x233 <= 22
 c146: 0.0111111111111111 x_0_1_1 + 0.00638888888888889 x_1_1_1
       + 0.00138888888888889 x_2_1_1 + 2 x235 + 2 x237 + 2 x239 <= 22
 c147: 0.0111111111111111 x_0_1_2 + 0.00638888888888889 x_1_1_2
       + 0.00138888888888889 x_2_1_2 + 2 x241 + 2 x243 + 2 x245 <= 22
 c148: 0.0111111111111111 x_0_1_3 + 0.00638888888888889 x_1_1_3
       + 0.00138888888888889 x_2_1_3 + 2 x247 + 2 x249 + 2 x251 <= 22
 c149: 0.0111111111111111 x_0_1_4 + 0.00638888888888889 x_1_1_4
       + 0.00138888888888889 x_2_1_4 + 2 x253 + 2 x254 + 2 x256 <= 22
 c150: 0.0111111111111111 x_0_1_5 + 0.00638888888888889 x_1_1_5
       + 0.00138888888888889 x_2_1_5 + 2 x258 + 2 x260 + 2 x262 <= 22
 c151: - x_0_0_0 + 99999999 x193 >= 0
 c152: - x_0_0_1 + 99999999 x199 >= 0
 c153: - x_0_0_2 + 99999999 x205 >= 0
 c154: - x_0_0_3 + 99999999 x211 >= 0
 c155: - x_0_0_4 + 99999999 x217 >= 0
 c156: - x_0_0_5 + 99999999 x223 >= 0
 c157: - x_0_1_0 + 99999999 x229 >= 0
 c158: - x_0_1_1 + 99999999 x235 >= 0
 c159: - x_0_1_2 + 99999999 x241 >= 0
 c160: - x_0_1_3 + 99999999 x247 >= 0
 c161: - x_0_1_4 + 99999999 x253 >= 0
 c162: - x_0_1_5 + 99999999 x258 >= 0
 c163: - x_1_0_0 + 99999999 x195 >= 0
 c164: - x_1_0_1 + 99999999 x201 >= 0
 c165: - x_1_0_2 + 99999999 x207 >= 0
 c166: - x_1_0_3 + 99999999 x213 >= 0
 c167: - x_1_0_4 + 99999999 x219 >= 0
 c168: - x_1_0_5 + 99999999 x225 >= 0
 c169: - x_1_1_0 + 99999999 x231 >= 0
 c170: - x_1_1_1 + 99999999 x237 >= 0
 c171: - x_1_1_2 + 99999999 x243 >= 0
 c172: - x_1_1_3 + 99999999 x249 >= 0
 c173: - x_1_1_4 + 99999999 x254 >= 0
 c174: - x_1_1_5 + 99999999 x260 >= 0
 c175: - x_2_0_0 + 99999999 x197 >= 0
 c176: - x_2_0_1 + 99999999 x203 >= 0
 c177: - x_2_0_2 + 99999999 x209 >= 0
 c178: - x_2_0_3 + 99999999 x215 >= 0
 c179: - x_2_0_4 + 99999999 x221 >= 0
 c180: - x_2_0_5 + 99999999 x227 >= 0
 c181: - x_2_1_0 + 99999999 x233 >= 0
 c182: - x_2_1_1 + 99999999 x239 >= 0
 c183: - x_2_1_2 + 99999999 x245 >= 0
 c184: - x_2_1_3 + 99999999 x251 >= 0
 c185: - x_2_1_4 + 99999999 x256 >= 0
 c186: - x_2_1_5 + 99999999 x262 >= 0
 c187: - x193 - x195 - x197 + 99999999 y_0_0 >= 0
 c188: - x199 - x201 - x203 + 99999999 y_0_1 >= 0
 c189: - x205 - x207 - x209 + 99999999 y_0_2 >= 0
 c190: - x211 - x213 - x215 + 99999999 y_0_3 >= 0
 c191: - x217 - x219 - x221 + 99999999 y_0_4 >= 0
 c192: - x223 - x225 - x227 + 99999999 y_0_5 >= 0
 c193: - x229 - x231 - x233 + 99999999 y_1_0 >= 0
 c194: - x235 - x237 - x239 + 99999999 y_1_1 >= 0
 c195: - x241 - x243 - x245 + 99999999 y_1_2 >= 0
 c196: - x247 - x249 - x251 + 99999999 y_1_3 >= 0
 c197: - x253 - x254 - x256 + 99999999 y_1_4 >= 0
 c198: - x258 - x260 - x262 + 99999999 y_1_5 >= 0
 c199: x_1_1_0  = 0
 c200: x_2_1_0  = 0
 c201: x_1_1_1  = 0
 c202: x_2_1_1  = 0
 c203: x_1_1_2  = 0
 c204: x_2_1_2  = 0
 c205: x_1_1_3  = 0
 c206: x_2_1_3  = 0
 c207: x_1_1_4  = 0
 c208: x_2_1_4  = 0
 c209: x_1_1_5  = 0
 c210: x_2_1_5  = 0
Bounds
 0 <= x_0_0_0 <= 99999999
 0 <= x_0_1_0 <= 99999999
 0 <= x3 <= 99999999
 0 <= x_0_0_1 <= 99999999
 0 <= x_0_1_1 <= 99999999
 0 <= x7 <= 99999999
 0 <= x_0_0_2 <= 99999999
 0 <= x_0_1_2 <= 99999999
 0 <= x11 <= 99999999
 0 <= x_0_0_3 <= 99999999
 0 <= x_0_1_3 <= 99999999
 0 <= x15 <= 99999999
 0 <= x_0_0_4 <= 99999999
 0 <= x_0_1_4 <= 99999999
 0 <= x19 <= 99999999
 0 <= x_0_0_5 <= 99999999
 0 <= x_0_1_5 <= 99999999
 0 <= x23 <= 99999999
 0 <= x_1_0_0 <= 99999999
 0 <= x_1_1_0 <= 99999999
 0 <= x27 <= 99999999
 0 <= x_1_0_1 <= 99999999
 0 <= x_1_1_1 <= 99999999
 0 <= x31 <= 99999999
 0 <= x_1_0_2 <= 99999999
 0 <= x_1_1_2 <= 99999999
 0 <= x35 <= 99999999
 0 <= x_1_0_3 <= 99999999
 0 <= x_1_1_3 <= 99999999
 0 <= x39 <= 99999999
 0 <= x_1_0_4 <= 99999999
 0 <= x_1_1_4 <= 99999999
 0 <= x43 <= 99999999
 0 <= x_1_0_5 <= 99999999
 0 <= x_1_1_5 <= 99999999
 0 <= x47 <= 99999999
 0 <= x_2_0_0 <= 99999999
 0 <= x_2_1_0 <= 99999999
 0 <= x51 <= 99999999
 0 <= x_2_0_1 <= 99999999
 0 <= x_2_1_1 <= 99999999
 0 <= x55 <= 99999999
 0 <= x_2_0_2 <= 99999999
 0 <= x_2_1_2 <= 99999999
 0 <= x59 <= 99999999
 0 <= x_2_0_3 <= 99999999
 0 <= x_2_1_3 <= 99999999
 0 <= x63 <= 99999999
 0 <= x_2_0_4 <= 99999999
 0 <= x_2_1_4 <= 99999999
 0 <= x67 <= 99999999
 0 <= x_2_0_5 <= 99999999
 0 <= x_2_1_5 <= 99999999
 0 <= x71 <= 99999999
 0 <= r_0_0 <= 99999999
 0 <= r_1_0 <= 99999999
 0 <= r_2_0 <= 99999999
 0 <= r_3_0 <= 99999999
 0 <= r_4_0 <= 99999999
 0 <= r_5_0 <= 99999999
 0 <= r_6_0 <= 99999999
 0 <= r_0_1 <= 99999999
 0 <= r_1_1 <= 99999999
 0 <= r_2_1 <= 99999999
 0 <= r_3_1 <= 99999999
 0 <= r_4_1 <= 99999999
 0 <= r_5_1 <= 99999999
 0 <= r_6_1 <= 99999999
 0 <= r_0_2 <= 99999999
 0 <= r_1_2 <= 99999999
 0 <= r_2_2 <= 99999999
 0 <= r_3_2 <= 99999999
 0 <= r_4_2 <= 99999999
 0 <= r_5_2 <= 99999999
 0 <= r_6_2 <= 99999999
 0 <= r_0_3 <= 99999999
 0 <= r_1_3 <= 99999999
 0 <= r_2_3 <= 99999999
 0 <= r_3_3 <= 99999999
 0 <= r_4_3 <= 99999999
 0 <= r_5_3 <= 99999999
 0 <= r_6_3 <= 99999999
 0 <= r_0_4 <= 99999999
 0 <= r_1_4 <= 99999999
 0 <= r_2_4 <= 99999999
 0 <= r_3_4 <= 99999999
 0 <= r_4_4 <= 99999999
 0 <= r_5_4 <= 99999999
 0 <= r_6_4 <= 99999999
 0 <= r_0_5 <= 99999999
 0 <= r_1_5 <= 99999999
 0 <= r_2_5 <= 99999999
 0 <= r_3_5 <= 99999999
 0 <= r_4_5 <= 99999999
 0 <= r_5_5 <= 99999999
 0 <= r_6_5 <= 99999999
 0 <= mr_0_0 <= 99999999
 0 <= mr_0_1 <= 99999999
 0 <= mr_0_2 <= 99999999
 0 <= mr_0_3 <= 99999999
 0 <= mr_0_4 <= 99999999
 0 <= mr_0_5 <= 99999999
 0 <= mr_1_0 <= 99999999
 0 <= mr_1_1 <= 99999999
 0 <= mr_1_2 <= 99999999
 0 <= mr_1_3 <= 99999999
 0 <= mr_1_4 <= 99999999
 0 <= mr_1_5 <= 99999999
 0 <= mr_2_0 <= 99999999
 0 <= mr_2_1 <= 99999999
 0 <= mr_2_2 <= 99999999
 0 <= mr_2_3 <= 99999999
 0 <= mr_2_4 <= 99999999
 0 <= mr_2_5 <= 99999999
 0 <= mr_3_0 <= 99999999
 0 <= mr_3_1 <= 99999999
 0 <= mr_3_2 <= 99999999
 0 <= mr_3_3 <= 99999999
 0 <= mr_3_4 <= 99999999
 0 <= mr_3_5 <= 99999999
 0 <= mr_4_0 <= 99999999
 0 <= mr_4_1 <= 99999999
 0 <= mr_4_2 <= 99999999
 0 <= mr_4_3 <= 99999999
 0 <= mr_4_4 <= 99999999
 0 <= mr_4_5 <= 99999999
 0 <= mr_5_0 <= 99999999
 0 <= mr_5_1 <= 99999999
 0 <= mr_5_2 <= 99999999
 0 <= mr_5_3 <= 99999999
 0 <= mr_5_4 <= 99999999
 0 <= mr_5_5 <= 99999999
 0 <= m_0_0 <= 99999999
 0 <= mr_6_0 <= 99999999
 0 <= mr_6_1 <= 99999999
 0 <= m_0_1 <= 99999999
 0 <= mr_6_2 <= 99999999
 0 <= m_0_2 <= 99999999
 0 <= mr_6_3 <= 99999999
 0 <= m_0_3 <= 99999999
 0 <= mr_6_4 <= 99999999
 0 <= m_0_4 <= 99999999
 0 <= mr_6_5 <= 99999999
 0 <= slack_0_0 <= 99999999
 0 <= slack_0_1 <= 99999999
 0 <= slack_0_2 <= 99999999
 0 <= slack_0_3 <= 99999999
 0 <= slack_0_4 <= 99999999
 0 <= slack_0_5 <= 99999999
 0 <= m_0_5 <= 99999999
 0 <= slack_1_0 <= 99999999
 0 <= m_1_0 <= 99999999
 0 <= slack_1_1 <= 99999999
 0 <= m_1_1 <= 99999999
 0 <= slack_1_2 <= 99999999
 0 <= m_1_2 <= 99999999
 0 <= slack_1_3 <= 99999999
 0 <= m_1_3 <= 99999999
 0 <= slack_1_4 <= 99999999
 0 <= m_1_4 <= 99999999
 0 <= slack_1_5 <= 99999999
 0 <= m_1_5 <= 99999999
 0 <= slack_2_0 <= 99999999
 0 <= m_2_0 <= 99999999
 0 <= slack_2_1 <= 99999999
 0 <= m_2_1 <= 99999999
 0 <= slack_2_2 <= 99999999
 0 <= m_2_2 <= 99999999
 0 <= slack_2_3 <= 99999999
 0 <= m_2_3 <= 99999999
 0 <= slack_2_4 <= 99999999
 0 <= m_2_4 <= 99999999
 0 <= slack_2_5 <= 99999999
 0 <= m_2_5 <= 99999999
 0 <= x193 <= 1
 0 <= x195 <= 1
 0 <= x197 <= 1
 0 <= x199 <= 1
 0 <= x201 <= 1
 0 <= x203 <= 1
 0 <= x205 <= 1
 0 <= x207 <= 1
 0 <= x209 <= 1
 0 <= x211 <= 1
 0 <= x213 <= 1
 0 <= x215 <= 1
 0 <= x217 <= 1
 0 <= x219 <= 1
 0 <= x221 <= 1
 0 <= x223 <= 1
 0 <= x225 <= 1
 0 <= x227 <= 1
 0 <= x229 <= 1
 0 <= x231 <= 1
 0 <= x233 <= 1
 0 <= x235 <= 1
 0 <= x237 <= 1
 0 <= x239 <= 1
 0 <= x241 <= 1
 0 <= x243 <= 1
 0 <= x245 <= 1
 0 <= x247 <= 1
 0 <= x249 <= 1
 0 <= x251 <= 1
 0 <= x253 <= 1
 0 <= x254 <= 1
 0 <= x256 <= 1
 0 <= x258 <= 1
 0 <= x260 <= 1
 0 <= x262 <= 1
 0 <= y_0_0 <= 1
 0 <= y_0_1 <= 1
 0 <= y_0_2 <= 1
 0 <= y_0_3 <= 1
 0 <= y_0_4 <= 1
 0 <= y_0_5 <= 1
 0 <= y_1_0 <= 1
 0 <= y_1_1 <= 1
 0 <= y_1_2 <= 1
 0 <= y_1_3 <= 1
 0 <= y_1_4 <= 1
 0 <= y_1_5 <= 1
      x276 = 0
Binaries
 x193  x195  x197  x199  x201  x203  x205  x207  x209  x211  x213  x215  x217 
 x219  x221  x223  x225  x227  x229  x231  x233  x235  x237  x239  x241  x243 
 x245  x247  x249  x251  x253  x254  x256  x258  x260  x262  y_0_0  y_0_1 
 y_0_2  y_0_3  y_0_4  y_0_5  y_1_0  y_1_1  y_1_2  y_1_3  y_1_4  y_1_5 
Generals
 x_0_0_0  x_0_1_0  x3  x_0_0_1  x_0_1_1  x7  x_0_0_2  x_0_1_2  x11  x_0_0_3 
 x_0_1_3  x15  x_0_0_4  x_0_1_4  x19  x_0_0_5  x_0_1_5  x23  x_1_0_0  x_1_1_0 
 x27  x_1_0_1  x_1_1_1  x31  x_1_0_2  x_1_1_2  x35  x_1_0_3  x_1_1_3  x39 
 x_1_0_4  x_1_1_4  x43  x_1_0_5  x_1_1_5  x47  x_2_0_0  x_2_1_0  x51  x_2_0_1 
 x_2_1_1  x55  x_2_0_2  x_2_1_2  x59  x_2_0_3  x_2_1_3  x63  x_2_0_4  x_2_1_4 
 x67  x_2_0_5  x_2_1_5  x71  r_0_0  r_1_0  r_2_0  r_3_0  r_4_0  r_5_0  r_6_0 
 r_0_1  r_1_1  r_2_1  r_3_1  r_4_1  r_5_1  r_6_1  r_0_2  r_1_2  r_2_2  r_3_2 
 r_4_2  r_5_2  r_6_2  r_0_3  r_1_3  r_2_3  r_3_3  r_4_3  r_5_3  r_6_3  r_0_4 
 r_1_4  r_2_4  r_3_4  r_4_4  r_5_4  r_6_4  r_0_5  r_1_5  r_2_5  r_3_5  r_4_5 
 r_5_5  r_6_5  mr_0_0  mr_0_1  mr_0_2  mr_0_3  mr_0_4  mr_0_5  mr_1_0  mr_1_1 
 mr_1_2  mr_1_3  mr_1_4  mr_1_5  mr_2_0  mr_2_1  mr_2_2  mr_2_3  mr_2_4 
 mr_2_5  mr_3_0  mr_3_1  mr_3_2  mr_3_3  mr_3_4  mr_3_5  mr_4_0  mr_4_1 
 mr_4_2  mr_4_3  mr_4_4  mr_4_5  mr_5_0  mr_5_1  mr_5_2  mr_5_3  mr_5_4 
 mr_5_5  m_0_0  mr_6_0  mr_6_1  m_0_1  mr_6_2  m_0_2  mr_6_3  m_0_3  mr_6_4 
 m_0_4  mr_6_5  slack_0_0  slack_0_1  slack_0_2  slack_0_3  slack_0_4 
 slack_0_5  m_0_5  slack_1_0  m_1_0  slack_1_1  m_1_1  slack_1_2  m_1_2 
 slack_1_3  m_1_3  slack_1_4  m_1_4  slack_1_5  m_1_5  slack_2_0  m_2_0 
 slack_2_1  m_2_1  slack_2_2  m_2_2  slack_2_3  m_2_3  slack_2_4  m_2_4 
 slack_2_5  m_2_5 
End
